NAME : portgen-18-57
COMMENT : portgen N=18, seed=57
TYPE : TSP
DIMENSION : 18
EDGE_WEIGHT_TYPE : EUC_2D
NODE_COORD_SECTION
1 371364 443118
2 171671 345301
3 99586 771556
4 32214 161926
5 188662 593595
6 732409 228764
7 58183 308248
8 382273 746675
9 33352 343672
10 179180 244950
11 588255 882293
12 78302 6434
13 598956 508593
14 423453 182721
15 694380 43806
16 895042 736213
17 967108 374497
18 523941 900936
